&CONTROL
  calculation   = 'scf',
  prefix        = 'MoS2',
  pseudo_dir    = './../pseudo',
  outdir        = './tmp/',
  verbosity     = 'high',
/
&SYSTEM
  ibrav         = 4,
  a             = 9.55590,
  c             = 20.2700,
  nat           = 27,
  ntyp          = 2,
  ecutwfc       = 70,
  ecutrho       = 280,
  occupations   = 'smearing',
  smearing      = 'mv',
  degauss       = 0.005,
/

&ELECTRONS
  conv_thr      = 1.0d-6,
/

ATOMIC_SPECIES
Mo     95.95000  Mo_ONCV_PBE_sr.upf
S      32.06500  S_ONCV_PBE_sr.upf

ATOMIC_POSITIONS (crystal)
Mo               0.2222185539        0.1111092769        0.1678136852
S                0.1111104686        0.2222209371        0.0910710819
S                0.1111104577        0.2222209155        0.2445579610
Mo               0.2222205274        0.4444410548        0.1678138815
S                0.1111108775        0.5555559388        0.0910719285
S                0.1111109197        0.5555559599        0.2445572849
Mo               0.2222205274        0.7777784726        0.1678138815
S                0.1111104686        0.8888895314        0.0910710819
S                0.1111104577        0.8888895423        0.2445579610
Mo               0.5555552282        0.1111114564        0.1678139593
S                0.4444432254        0.2222216127        0.0910723466
S                0.4444430122        0.2222215061        0.2445568711
Mo               0.5555552282        0.4444437718        0.1678139593
S                0.4444440612        0.5555559388        0.0910719285
S                0.4444440401        0.5555559599        0.2445572849
Mo               0.5555579452        0.7777784726        0.1678138815
S                0.4444440612        0.8888891225        0.0910719285
S                0.4444440401        0.8888890803        0.2445572849
Mo               0.8888907231        0.1111092769        0.1678136852
S                0.7777783873        0.2222216127        0.0910723466
S                0.7777784939        0.2222215061        0.2445568711
Mo               0.8888885436        0.4444437718        0.1678139593
S                0.7777783873        0.5555567746        0.0910723466
S                0.7777784939        0.5555569878        0.2445568711
Mo               0.8888907231        0.7777804461        0.1678136852
S                0.7777790629        0.8888895314        0.0910710819
S                0.7777790845        0.8888895423        0.2445579610

K_POINTS (gamma)