&CONTROL
  calculation   = 'nscf',
  prefix        = 'MoS2',
  pseudo_dir    = './../pseudo',
  outdir        = '../../../tmp/',
  verbosity     = 'high',
/
&SYSTEM
  ibrav         = 0,
  nat           = 3,
  ntyp          = 2,
  nbnd          = 25,
  ecutwfc       = 80,
  ecutrho       = 350,
  nosym         = .true.,
!  noinv         = .true.,
 occupations = 'tetrahedra'
/
&ELECTRONS
  conv_thr      = 1.0d-8,
/

ATOMIC_SPECIES
Mo     95.95000  Mo_ONCV_PBE_sr.upf
S      32.06500  S_ONCV_PBE_sr.upf

CELL_PARAMETERS (angstrom)
   3.185296918  -0.000000000   0.000000000
  -1.592648459   2.758548331   0.000000000
   0.000000000   0.000000000  20.270000000

ATOMIC_POSITIONS (crystal)
Mo               0.6666664225        0.3333322010        0.1678140679
S                0.3333334793        0.6666672224        0.0906516779
S                0.3333334312        0.6666672436        0.2449772541

K_POINTS (automatic)
48 48 1  0 0 0
