&DOS
outdir = '../../../tmp/'
prefix = 'MoS2'
fildos = 'MoS2.dos'
/