&projwfc
prefix = 'MoS2'
outdir = '../../../tmp/'
/