&BANDS
    prefix       = 'MoS2'
    outdir        = './../tmp/'
    filband      = 'bands.dat'
/
